111111111111111
100000000010001
101111111011101
101000100000001
101010111111111
101010000000001
101011111111101
101010000010001
101010111010111
100010101010001
111010101011101
101010101000001
101110101111101
100000100000001
111111111111111
